// --- Conjuntos ---
I = { "AAPL", "AMZN", "BTC-USD", "ES=F", "EURUSD=X", "GOOGL", "MSFT", "NVDA", "SPY", "VTSAX" };

H = 5;

D = { "2025-10-05", "2025-10-12", "2025-10-19", "2025-10-26", "2025-11-02" };

C = { "Acciones", "Cripto", "Divisa", "ETF", "Fondo", "Otros" };

// --- Parámetros ---
r = [
  [0.043401, 0.039390, 0.039956, 0.039993, 0.037591]
  [0.031020, 0.028079, 0.027270, 0.022601, 0.021477]
  [-0.000296, 0.002010, 0.001836, 0.000070, 0.003558]
  [0.009999, 0.010310, 0.010334, 0.010054, 0.010033]
  [-0.005036, -0.004333, -0.003785, -0.004211, -0.003582]
  [0.111900, 0.106722, 0.103787, 0.095633, 0.089496]
  [-0.020035, -0.017027, -0.015060, -0.014906, -0.013044]
  [-0.022017, -0.016812, -0.016192, -0.014704, -0.010774]
  [0.010886, 0.011176, 0.011247, 0.010402, 0.010379]
  [0.011116, 0.011340, 0.011431, 0.010505, 0.010437]
];

c_buy = [0.001000, 0.000500, 0.001500, 0.000200, 0.002500, 0.001500, 0.001000, 0.001000, 0.001000, 0.001000];

c_sell = [0.001500, 0.001000, 0.002000, 0.000300, 0.003000, 0.002000, 0.001500, 0.001500, 0.001500, 0.001500];

g = [
  [1, 0, 0, 0, 0, 0]
  [1, 0, 0, 0, 0, 0]
  [0, 1, 0, 0, 0, 0]
  [0, 0, 0, 0, 0, 1]
  [0, 0, 1, 0, 0, 0]
  [1, 0, 0, 0, 0, 0]
  [1, 0, 0, 0, 0, 0]
  [1, 0, 0, 0, 0, 0]
  [0, 0, 0, 1, 0, 0]
  [0, 0, 0, 0, 1, 0]
];

W0 = 100;

L = [0.100000, 0.100000, 0.100000, 0.100000, 0.100000, 0.100000];

U = [0.750000, 0.750000, 0.750000, 0.750000, 0.750000, 0.750000];

X_min = [0.000000, 0.000000, 0.000000, 0.000000, 0.000000, 0.000000, 0.000000, 0.000000, 0.000000, 0.000000];

X_max = [0.750000, 0.750000, 0.750000, 0.750000, 0.750000, 0.750000, 0.750000, 0.750000, 0.750000, 0.750000];

